MW

VEHICLE
NUMBER     CAPACITY
  25         33

CUSTOMER
CUST NO.   XCOORD.    YCOORD.    DEMAND   READY TIME   DUE DATE   SERVICE TIME

    0      677.908     6150.22       0         360        1320         0
    1      720.445     6174.09       11        392         512         0
    2      700.635     6166.28       10        394         514         0
    3      639.776     6165.74       9        382         502         0
    4      724.05     6179.61       6        419         539         0
    5      650.574     6158.21       12        360         470         0
    6      708.344     6183.51       12        445         565         0
    7      710.145     6172.85       14        363         483         0
    8      659.742     6196.52       11        370         490         0
    9      714.274     6221.24       13        428         548         0
    10      716.808     6188.57       4        413         533         0
    11      589.102     6141.11       11        666         786         0
    12      491.71     6250.34       10        810         930         0
    13      561.983     6239.17       9        795         915         0
    14      464.065     6206.48       6        889         1009         0
    15      529.917     6151.19       12        774         894         0
    16      455.065     6216.52       12        859         979         0
    17      465.32     6146.89       14        827         947         0
    18      601.115     6102.21       11        749         869         0
    19      552.75     6190.79       13        756         876         0
    20      584.312     6139.4       4        684         804         0

0	1 2 3 4 5 6 7 8 9 10 11 12 13 14 15 16 17 18 19 20 
1	2 3 4 5 6 7 8 9 10 0 
2	1 3 4 5 6 7 8 9 10 0 
3	1 2 4 5 6 7 8 9 10 0 
4	1 2 3 5 6 7 8 9 10 0 
5	1 2 3 4 6 7 8 9 10 0 
6	1 2 3 4 5 7 8 9 10 0 
7	1 2 3 4 5 6 8 9 10 0 
8	1 2 3 4 5 6 7 9 10 0 
9	1 2 3 4 5 6 7 8 10 0 
10	1 2 3 4 5 6 7 8 9 0 
11	12 13 14 15 16 17 18 19 20 0 
12	11 13 14 15 16 17 18 19 20 0 
13	11 12 14 15 16 17 18 19 20 0 
14	11 12 13 15 16 17 18 19 20 0 
15	11 12 13 14 16 17 18 19 20 0 
16	11 12 13 14 15 17 18 19 20 0 
17	11 12 13 14 15 16 18 19 20 0 
18	11 12 13 14 15 16 17 19 20 0 
19	11 12 13 14 15 16 17 18 20 0 
20	11 12 13 14 15 16 17 18 19 0 
